\ Model Parallel identical processor scheduling with weighted completion times as set-covering formulation
\ LP format - for model browsing. Use MPS format to capture full model detail.
Minimize
  2897 x_s[0] + 3265 x_s[1] + 3037 x_s[2] + 3138 x_s[3] + 2897 x_s[4]
   + 3223 x_s[5] + 2729 x_s[6] + 3493 x_s[7] + 2897 x_s[8] + 2752 x_s[9]
   + 3470 x_s[10] + 3223 x_s[11] + 2989 x_s[12] + 3493 x_s[13]
   + 2956 x_s[14] + 2903 x_s[15] + 2719 x_s[16] + 3223 x_s[17]
   + 3493 x_s[18] + 2907 x_s[19] + 3470 x_s[20] + 2897 x_s[21]
   + 2752 x_s[22] + 3223 x_s[23] + 3223 x_s[24] + 2729 x_s[25]
   + 2897 x_s[26] + 3493 x_s[27] + 2956 x_s[28] + 2989 x_s[29]
   + 2903 x_s[30] + 3493 x_s[31] + 3012 x_s[32] + 2924 x_s[33]
   + 3503 x_s[34] + 2903 x_s[35] + 2903 x_s[36] + 2956 x_s[37]
   + 2989 x_s[38] + 3493 x_s[39]
Subject To
 R0: x_s[0] + x_s[1] + x_s[2] + x_s[3] + x_s[4] + x_s[5] + x_s[6] + x_s[7]
   + x_s[8] + x_s[9] + x_s[10] + x_s[11] + x_s[12] + x_s[13] + x_s[14]
   + x_s[15] + x_s[16] + x_s[17] + x_s[18] + x_s[19] + x_s[20] + x_s[21]
   + x_s[22] + x_s[23] + x_s[24] + x_s[25] + x_s[26] + x_s[27] + x_s[28]
   + x_s[29] + x_s[30] + x_s[31] + x_s[32] + x_s[33] + x_s[34] + x_s[35]
   + x_s[36] + x_s[37] + x_s[38] + x_s[39] = 4
 R1: x_s[2] + x_s[6] + x_s[9] + x_s[15] + x_s[19] + x_s[22] + x_s[25]
   + x_s[30] + x_s[35] + x_s[36] = 1
 R2: x_s[1] + x_s[6] + x_s[9] + x_s[14] + x_s[16] + x_s[22] + x_s[25]
   + x_s[28] + x_s[33] + x_s[37] = 1
 R3: x_s[0] + x_s[4] + x_s[8] + x_s[12] + x_s[19] + x_s[21] + x_s[26]
   + x_s[29] + x_s[32] + x_s[38] = 1
 R4: x_s[1] + x_s[5] + x_s[11] + x_s[14] + x_s[17] + x_s[23] + x_s[24]
   + x_s[28] + x_s[33] + x_s[37] = 1
 R5: x_s[3] + x_s[7] + x_s[10] + x_s[13] + x_s[18] + x_s[20] + x_s[27]
   + x_s[31] + x_s[34] + x_s[39] = 1
 R6: x_s[0] + x_s[4] + x_s[8] + x_s[15] + x_s[19] + x_s[21] + x_s[26]
   + x_s[30] + x_s[35] + x_s[36] = 1
 R7: x_s[2] + x_s[6] + x_s[9] + x_s[15] + x_s[16] + x_s[22] + x_s[25]
   + x_s[30] + x_s[35] + x_s[36] = 1
 R8: x_s[2] + x_s[6] + x_s[10] + x_s[12] + x_s[16] + x_s[20] + x_s[25]
   + x_s[29] + x_s[34] + x_s[38] = 1
 R9: x_s[3] + x_s[6] + x_s[9] + x_s[12] + x_s[19] + x_s[22] + x_s[25]
   + x_s[29] + x_s[32] + x_s[38] = 1
 R10: x_s[3] + x_s[5] + x_s[11] + x_s[14] + x_s[17] + x_s[23] + x_s[24]
   + x_s[28] + x_s[34] + x_s[37] = 1
 R11: x_s[0] + x_s[4] + x_s[8] + x_s[15] + x_s[16] + x_s[21] + x_s[26]
   + x_s[30] + x_s[35] + x_s[36] = 1
 R12: x_s[2] + x_s[6] + x_s[9] + x_s[12] + x_s[16] + x_s[22] + x_s[25]
   + x_s[29] + x_s[32] + x_s[38] = 1
 R13: x_s[3] + x_s[7] + x_s[10] + x_s[13] + x_s[18] + x_s[20] + x_s[27]
   + x_s[31] + x_s[34] + x_s[39] = 1
 R14: x_s[1] + x_s[5] + x_s[11] + x_s[14] + x_s[17] + x_s[23] + x_s[24]
   + x_s[28] + x_s[33] + x_s[37] = 1
 R15: x_s[1] + x_s[5] + x_s[11] + x_s[14] + x_s[17] + x_s[23] + x_s[24]
   + x_s[28] + x_s[34] + x_s[37] = 1
 R16: x_s[2] + x_s[7] + x_s[10] + x_s[13] + x_s[18] + x_s[20] + x_s[27]
   + x_s[31] + x_s[33] + x_s[39] = 1
 R17: x_s[1] + x_s[5] + x_s[11] + x_s[12] + x_s[17] + x_s[23] + x_s[24]
   + x_s[29] + x_s[32] + x_s[38] = 1
 R18: x_s[0] + x_s[4] + x_s[8] + x_s[15] + x_s[19] + x_s[21] + x_s[26]
   + x_s[30] + x_s[35] + x_s[36] = 1
 R19: x_s[2] + x_s[6] + x_s[9] + x_s[14] + x_s[16] + x_s[22] + x_s[25]
   + x_s[28] + x_s[33] + x_s[37] = 1
 R20: x_s[3] + x_s[7] + x_s[9] + x_s[13] + x_s[18] + x_s[22] + x_s[27]
   + x_s[31] + x_s[32] + x_s[39] = 1
Bounds
Binaries
 x_s[0] x_s[1] x_s[2] x_s[3] x_s[4] x_s[5] x_s[6] x_s[7] x_s[8] x_s[9]
 x_s[10] x_s[11] x_s[12] x_s[13] x_s[14] x_s[15] x_s[16] x_s[17] x_s[18]
 x_s[19] x_s[20] x_s[21] x_s[22] x_s[23] x_s[24] x_s[25] x_s[26] x_s[27]
 x_s[28] x_s[29] x_s[30] x_s[31] x_s[32] x_s[33] x_s[34] x_s[35] x_s[36]
 x_s[37] x_s[38] x_s[39]
End
